proyfinal/src/viki/013/experimentInOfficeAgust.take6.output/8ff3983c-372b-4563-bdfb-d34c06126b8b.als.dat
{'cnf.clauses': '118081',
 'cnf.totvars': '69608',
 'conflict literals': '55',
 'conflicts': '23',
 'decisions': '31060',
 'memused.mb': '18.55',
 'outcome': 'UNSAT',
 'propagations': '63135',
 'restarts': '1',
 'solver.msecs': 36,
 'task.msecs': 95}
