proyfinal/src/viki/013/experimentInOfficeAgust.take6.output/8ff3983c-372b-4563-bdfb-d34c06126b8b.als.out
Reading from standard input... Use '--help' for help.
============================[ Problem Statistics ]=============================
|                                                                             |
|  Number of variables:         69608                                         |
|  Number of clauses:          118081                                         |
|  Parse time:                   0.02 s                                       |
|                                                                             |
============================[ Search Statistics ]==============================
| Conflicts |          ORIGINAL         |          LEARNT          | Progress |
|           |    Vars  Clauses Literals |    Limit  Clauses Lit/Cl |          |
===============================================================================
===============================================================================
restarts              : 1
conflicts             : 23             (622 /sec)
decisions             : 31060          (0.00 % random) (840527 /sec)
propagations          : 63135          (1708522 /sec)
conflict literals     : 55             (3.51 % deleted)
Memory used           : 18.55 MB
CPU time              : 0.036953 s

UNSATISFIABLE
